300
125 125
1 100 760
2 100 610
3 99 781
4 98 144
5 97 619
6 97 104
7 97 452
8 97 93
9 97 904
10 97 563
11 97 440
12 97 764
13 96 706
14 96 907
15 96 481
16 96 958
17 95 233
18 95 92
19 95 553
20 95 746
21 95 962
22 95 787
23 94 872
24 94 718
25 93 936
26 93 6
27 93 584
28 93 421
29 92 307
30 92 692
31 91 963
32 91 971
33 90 928
34 90 594
35 89 627
36 89 841
37 89 458
38 89 309
39 89 62
40 89 59
41 88 408
42 88 124
43 88 511
44 88 369
45 87 205
46 87 484
47 87 750
48 86 846
49 86 952
50 86 722
51 86 504
52 86 115
53 85 285
54 85 49
55 84 621
56 84 392
57 84 118
58 84 349
59 84 284
60 83 606
61 83 877
62 83 213
63 83 364
64 82 584
65 81 223
66 81 390
67 81 394
68 81 365
69 80 95
70 80 225
71 80 775
72 80 571
73 80 948
74 79 447
75 79 698
76 79 682
77 78 33
78 78 240
79 78 271
80 78 949
81 77 925
82 77 305
83 76 86
84 76 582
85 75 306
86 75 549
87 75 412
88 75 283
89 75 744
90 75 904
91 74 202
92 74 977
93 74 423
94 74 117
95 74 107
96 73 901
97 72 855
98 72 270
99 72 561
100 72 632
101 72 425
102 72 668
103 71 150
104 71 440
105 71 898
106 71 523
107 71 88
108 71 535
109 71 204
110 70 670
111 70 326
112 70 748
113 70 480
114 69 965
115 69 192
116 69 541
117 67 129
118 66 704
119 66 277
120 66 101
121 66 381
122 65 422
123 64 221
124 64 740
125 63 738
126 63 847
127 63 657
128 63 395
129 63 307
130 62 409
131 62 283
132 62 150
133 61 516
134 61 720
135 61 530
136 61 989
137 61 593
138 61 175
139 60 550
140 60 540
141 59 378
142 59 339
143 59 835
144 59 675
145 59 62
146 59 413
147 59 63
148 59 663
149 58 152
150 57 735
151 57 316
152 56 547
153 56 300
154 56 91
155 56 183
156 55 494
157 55 337
158 55 256
159 55 631
160 55 5
161 54 631
162 54 903
163 54 190
164 53 304
165 53 822
166 53 546
167 53 381
168 52 968
169 52 607
170 51 598
171 51 243
172 51 975
173 51 758
174 51 166
175 51 715
176 51 611
177 50 336
178 50 769
179 50 334
180 48 846
181 48 163
182 48 615
183 48 700
184 48 374
185 48 635
186 48 982
187 48 321
188 48 416
189 47 725
190 47 321
191 47 417
192 47 161
193 47 717
194 47 525
195 46 52
196 46 901
197 46 958
198 46 885
199 46 514
200 46 220
201 45 708
202 45 391
203 44 189
204 44 175
205 44 834
206 44 277
207 44 124
208 44 382
209 44 319
210 44 169
211 43 909
212 43 524
213 43 583
214 43 698
215 42 136
216 42 435
217 41 552
218 41 5
219 41 495
220 40 115
221 40 613
222 39 825
223 38 734
224 38 29
225 38 751
226 37 380
227 37 750
228 35 549
229 35 162
230 34 176
231 34 647
232 34 852
233 33 539
234 33 612
235 31 920
236 31 568
237 31 731
238 30 940
239 30 662
240 30 932
241 29 6
242 27 780
243 27 483
244 27 738
245 27 880
246 27 504
247 26 302
248 26 797
249 26 174
250 25 262
251 25 381
252 25 487
253 24 553
254 24 927
255 24 321
256 24 309
257 23 517
258 22 922
259 21 822
260 21 270
261 21 202
262 21 209
263 21 376
264 20 308
265 20 85
266 20 71
267 20 240
268 19 662
269 18 144
270 18 865
271 17 845
272 17 327
273 17 668
274 16 511
275 16 48
276 16 396
277 16 676
278 15 888
279 15 278
280 15 80
281 15 172
282 15 503
283 15 60
284 15 398
285 14 985
286 14 939
287 14 718
288 14 362
289 14 400
290 14 818
291 14 760
292 14 341
293 14 79
294 13 814
295 13 951
296 12 81
297 12 603
298 12 793
299 12 597
300 12 84
